251
3973
182
0 3
0 5
0 7
0 15
0 19
0 73
0 129
0 131
0 144
1 2
1 6
1 11
1 13
1 14
1 17
1 37
1 38
1 39
1 42
1 47
1 48
1 91
1 113
1 130
1 137
1 164
1 167
1 234
2 6
2 11
2 13
2 14
2 17
2 113
2 130
2 137
3 5
3 7
3 14
3 15
3 19
3 22
3 23
3 25
3 31
3 32
3 36
3 39
3 47
3 48
3 73
3 129
3 131
3 144
3 167
4 8
4 9
4 10
4 12
4 16
4 18
4 26
4 27
4 29
4 34
4 42
4 44
4 51
4 62
4 96
4 98
4 111
4 112
4 114
4 115
4 116
4 120
4 121
4 122
4 125
4 126
4 132
4 133
4 135
4 142
4 153
4 171
4 173
4 202
4 205
5 7
5 14
5 15
5 19
5 22
5 23
5 25
5 31
5 32
5 36
5 39
5 47
5 48
5 57
5 58
5 59
5 60
5 63
5 67
5 73
5 129
5 131
5 144
5 150
5 167
5 185
5 188
6 11
6 13
6 14
6 17
6 24
6 28
6 30
6 33
6 35
6 40
6 41
6 43
6 45
6 46
6 49
6 50
6 52
6 113
6 130
6 137
7 14
7 15
7 19
7 22
7 23
7 25
7 31
7 32
7 36
7 39
7 43
7 47
7 48
7 57
7 58
7 59
7 60
7 63
7 67
7 73
7 78
7 79
7 97
7 129
7 131
7 144
7 150
7 167
7 170
7 185
7 188
7 223
7 240
7 242
8 9
8 10
8 12
8 16
8 18
8 26
8 27
8 29
8 34
8 42
8 44
8 51
8 62
8 96
8 98
8 132
8 133
8 135
8 142
8 153
8 171
8 173
8 202
8 205
9 10
9 12
9 16
9 18
9 26
9 27
9 29
9 34
9 42
9 44
9 51
9 62
9 96
9 98
9 173
10 12
10 16
10 18
10 26
10 27
10 29
10 34
10 42
10 44
10 51
10 62
10 96
10 98
10 118
10 119
10 123
10 124
10 127
10 134
10 136
10 138
10 139
10 140
10 141
10 173
11 13
11 14
11 17
11 24
11 28
11 30
11 33
11 35
11 40
11 41
11 43
11 45
11 46
11 49
11 50
11 52
11 63
11 80
11 82
11 99
11 100
11 101
11 104
11 109
11 113
11 120
11 130
11 137
11 166
11 171
11 172
11 174
11 176
11 177
11 178
11 191
11 245
12 16
12 18
12 26
12 27
12 29
12 34
12 42
12 44
12 51
12 62
12 64
12 96
12 98
12 118
12 119
12 123
12 124
12 127
12 134
12 136
12 138
12 139
12 140
12 141
12 146
12 147
12 149
12 151
12 155
12 173
12 187
12 192
12 204
12 210
12 211
12 220
12 226
12 227
12 244
13 14
13 17
13 24
13 28
13 30
13 33
13 35
13 40
13 41
13 43
13 45
13 46
13 49
13 50
13 52
13 63
13 80
13 82
13 99
13 100
13 101
13 104
13 109
13 113
13 120
13 130
13 137
13 191
13 245
14 15
14 17
14 19
14 22
14 23
14 25
14 31
14 32
14 36
14 37
14 38
14 39
14 42
14 47
14 48
14 61
14 64
14 65
14 66
14 68
14 69
14 70
14 81
14 83
14 87
14 89
14 91
14 113
14 121
14 130
14 131
14 137
14 164
14 167
14 234
15 19
15 22
15 23
15 25
15 31
15 32
15 36
15 39
15 47
15 48
15 61
15 64
15 65
15 66
15 68
15 69
15 70
15 73
15 81
15 83
15 87
15 89
15 121
15 129
15 131
15 144
15 167
16 18
16 26
16 27
16 29
16 34
16 42
16 44
16 51
16 62
16 96
16 98
16 104
16 109
16 118
16 119
16 123
16 124
16 127
16 134
16 136
16 138
16 139
16 140
16 141
16 145
16 148
16 150
16 152
16 157
16 158
16 159
16 166
16 173
16 176
17 24
17 28
17 30
17 33
17 35
17 40
17 41
17 43
17 45
17 46
17 49
17 50
17 52
17 61
17 67
17 84
17 85
17 86
17 87
17 88
17 93
17 102
17 103
17 105
17 106
17 107
17 108
17 113
17 122
17 125
17 126
17 130
17 137
17 142
17 159
17 175
17 179
17 192
17 194
17 195
17 206
17 209
17 211
17 214
17 231
17 241
17 243
17 244
17 250
18 26
18 27
18 29
18 34
18 42
18 44
18 50
18 51
18 62
18 68
18 96
18 98
18 106
18 118
18 119
18 123
18 124
18 127
18 134
18 136
18 138
18 139
18 140
18 141
18 156
18 160
18 161
18 173
18 177
18 178
18 213
19 22
19 23
19 25
19 31
19 32
19 36
19 39
19 47
19 48
19 61
19 64
19 65
19 66
19 68
19 69
19 70
19 73
19 81
19 83
19 87
19 89
19 121
19 129
19 131
19 144
19 159
19 167
19 180
19 186
19 191
19 192
19 194
19 196
19 209
20 26
20 27
20 29
20 34
20 37
20 42
20 53
20 62
20 71
20 197
21 24
21 28
21 30
21 33
21 35
21 54
21 56
21 75
21 112
21 181
21 183
21 236
22 23
22 25
22 31
22 32
22 36
22 39
22 47
22 48
22 131
22 167
23 25
23 31
23 32
23 36
23 39
23 47
23 48
23 57
23 58
23 59
23 60
23 63
23 67
23 131
23 150
23 167
23 185
23 188
24 28
24 30
24 33
24 35
24 40
24 41
24 43
24 45
24 46
24 49
24 50
24 52
24 54
24 56
24 75
24 112
24 137
24 181
24 183
24 236
25 31
25 32
25 36
25 39
25 47
25 48
25 57
25 58
25 59
25 60
25 63
25 67
25 72
25 74
25 77
25 80
25 82
25 84
25 85
25 86
25 88
25 116
25 120
25 122
25 125
25 126
25 131
25 142
25 150
25 167
25 185
25 188
26 27
26 29
26 34
26 37
26 42
26 44
26 51
26 53
26 62
26 71
26 96
26 98
26 132
26 133
26 135
26 142
26 153
26 171
26 173
26 197
26 202
26 205
27 29
27 34
27 37
27 42
27 44
27 51
27 53
27 62
27 71
27 96
27 98
27 173
27 197
28 30
28 33
28 35
28 40
28 41
28 43
28 45
28 46
28 49
28 50
28 52
28 54
28 56
28 63
28 75
28 80
28 82
28 99
28 100
28 101
28 104
28 109
28 112
28 120
28 137
28 166
28 171
28 172
28 174
28 176
28 177
28 178
28 181
28 183
28 191
28 236
28 245
29 34
29 37
29 42
29 44
29 51
29 53
29 62
29 71
29 96
29 98
29 118
29 119
29 123
29 124
29 127
29 134
29 136
29 138
29 139
29 140
29 141
29 173
29 197
30 33
30 35
30 40
30 41
30 43
30 45
30 46
30 49
30 50
30 52
30 54
30 56
30 63
30 75
30 80
30 82
30 99
30 100
30 101
30 104
30 109
30 112
30 120
30 137
30 181
30 183
30 191
30 236
30 245
31 32
31 36
31 39
31 47
31 48
31 61
31 64
31 65
31 66
31 68
31 69
31 70
31 81
31 83
31 87
31 89
31 121
31 131
31 167
32 36
32 39
32 47
32 48
32 61
32 64
32 65
32 66
32 68
32 69
32 70
32 81
32 83
32 87
32 89
32 121
32 131
32 167
32 187
32 189
32 190
32 193
32 195
32 248
33 35
33 40
33 41
33 43
33 45
33 46
33 49
33 50
33 52
33 54
33 56
33 67
33 75
33 84
33 85
33 86
33 88
33 93
33 102
33 103
33 105
33 106
33 107
33 108
33 112
33 122
33 125
33 126
33 137
33 142
33 175
33 179
33 181
33 183
33 226
33 229
33 236
33 246
33 249
34 37
34 42
34 44
34 50
34 51
34 53
34 62
34 68
34 71
34 96
34 98
34 106
34 118
34 119
34 123
34 124
34 127
34 134
34 136
34 138
34 139
34 140
34 141
34 156
34 160
34 161
34 173
34 177
34 178
34 197
34 213
35 40
35 41
35 43
35 45
35 46
35 49
35 50
35 52
35 54
35 56
35 67
35 75
35 84
35 85
35 86
35 88
35 93
35 102
35 103
35 105
35 106
35 107
35 108
35 112
35 122
35 125
35 126
35 137
35 142
35 175
35 179
35 181
35 183
35 236
36 39
36 47
36 48
36 61
36 64
36 65
36 66
36 68
36 69
36 70
36 81
36 83
36 87
36 89
36 121
36 131
36 159
36 167
36 180
36 186
36 191
36 192
36 194
36 196
36 209
37 38
37 39
37 42
37 47
37 48
37 53
37 62
37 71
37 91
37 164
37 167
37 197
37 234
38 39
38 42
38 47
38 48
38 91
38 164
38 167
38 234
39 42
39 47
39 48
39 91
39 131
39 164
39 167
39 234
40 41
40 43
40 45
40 46
40 49
40 50
40 52
40 94
40 95
40 97
40 137
40 147
40 149
40 163
40 168
40 170
40 220
40 221
40 223
40 238
40 240
40 242
41 43
41 45
41 46
41 49
41 50
41 52
41 137
42 44
42 47
42 48
42 51
42 53
42 62
42 71
42 91
42 96
42 98
42 132
42 133
42 135
42 142
42 153
42 164
42 167
42 171
42 173
42 197
42 202
42 205
42 234
43 45
43 46
43 49
43 50
43 52
43 59
43 60
43 73
43 78
43 79
43 94
43 95
43 97
43 137
43 147
43 149
43 163
43 168
43 170
43 188
43 220
43 221
43 223
43 238
43 240
43 242
44 51
44 54
44 62
44 72
44 90
44 96
44 98
44 162
44 173
44 180
44 181
44 232
45 46
45 49
45 50
45 52
45 63
45 80
45 82
45 99
45 100
45 101
45 104
45 109
45 120
45 137
45 166
45 171
45 172
45 174
45 176
45 177
45 178
45 191
45 245
46 49
46 50
46 52
46 63
46 80
46 82
46 99
46 100
46 101
46 104
46 109
46 120
46 137
46 191
46 245
47 48
47 61
47 64
47 65
47 66
47 68
47 69
47 70
47 81
47 83
47 87
47 89
47 91
47 121
47 131
47 164
47 167
47 234
48 61
48 64
48 65
48 66
48 68
48 69
48 70
48 81
48 83
48 87
48 89
48 91
48 121
48 131
48 164
48 167
48 187
48 189
48 190
48 193
48 195
48 234
48 248
49 50
49 52
49 67
49 84
49 85
49 86
49 88
49 93
49 102
49 103
49 105
49 106
49 107
49 108
49 122
49 125
49 126
49 137
49 142
49 175
49 179
49 226
49 229
49 246
49 249
50 51
50 52
50 63
50 68
50 80
50 82
50 99
50 100
50 101
50 104
50 106
50 109
50 120
50 124
50 127
50 137
50 140
50 156
50 160
50 161
50 166
50 171
50 172
50 174
50 176
50 177
50 178
50 191
50 213
50 245
51 54
51 62
51 68
51 72
51 90
51 96
51 98
51 106
51 118
51 119
51 123
51 124
51 127
51 134
51 136
51 138
51 139
51 140
51 141
51 156
51 160
51 161
51 162
51 173
51 177
51 178
51 180
51 181
51 213
51 232
52 67
52 84
52 85
52 86
52 88
52 93
52 102
52 103
52 105
52 106
52 107
52 108
52 122
52 125
52 126
52 137
52 142
52 175
52 179
53 54
53 55
53 56
53 62
53 71
53 75
53 111
53 112
53 163
53 181
53 182
53 183
53 197
53 199
53 217
53 233
53 236
54 55
54 56
54 62
54 71
54 72
54 75
54 90
54 96
54 98
54 111
54 112
54 162
54 163
54 173
54 180
54 181
54 182
54 183
54 197
54 199
54 217
54 232
54 233
54 236
55 56
55 62
55 71
55 75
55 111
55 112
55 163
55 181
55 182
55 183
55 197
55 199
55 217
55 233
55 236
56 62
56 71
56 75
56 111
56 112
56 163
56 181
56 182
56 183
56 197
56 199
56 217
56 233
56 236
57 58
57 59
57 60
57 63
57 67
57 150
57 185
57 188
58 59
58 60
58 63
58 67
58 72
58 74
58 77
58 80
58 82
58 84
58 85
58 86
58 88
58 116
58 120
58 122
58 125
58 126
58 142
58 150
58 185
58 188
59 60
59 63
59 67
59 73
59 78
59 79
59 97
59 150
59 170
59 185
59 188
59 223
59 240
59 242
60 63
60 67
60 73
60 78
60 79
60 97
60 110
60 113
60 117
60 118
60 119
60 123
60 124
60 127
60 150
60 170
60 185
60 188
60 223
60 240
60 242
61 64
61 65
61 66
61 68
61 69
61 70
61 81
61 83
61 86
61 87
61 89
61 107
61 121
61 125
61 159
61 180
61 186
61 191
61 192
61 194
61 195
61 196
61 206
61 209
61 211
61 214
61 216
61 220
61 224
61 225
61 227
61 231
61 241
61 243
61 244
61 250
62 71
62 75
62 96
62 98
62 111
62 112
62 118
62 119
62 123
62 124
62 127
62 134
62 136
62 138
62 139
62 140
62 141
62 163
62 173
62 181
62 182
62 183
62 197
62 199
62 217
62 233
62 236
63 67
63 72
63 74
63 77
63 80
63 82
63 84
63 85
63 86
63 88
63 99
63 100
63 101
63 104
63 109
63 116
63 120
63 122
63 125
63 126
63 137
63 142
63 150
63 185
63 188
63 191
63 245
64 65
64 66
64 68
64 69
64 70
64 81
64 83
64 87
64 89
64 106
64 119
64 121
64 134
64 146
64 147
64 149
64 151
64 155
64 187
64 189
64 190
64 192
64 193
64 195
64 198
64 202
64 204
64 205
64 207
64 208
64 210
64 211
64 213
64 220
64 226
64 227
64 244
64 248
65 66
65 68
65 69
65 70
65 81
65 83
65 87
65 89
65 121
66 68
66 69
66 70
66 81
66 83
66 87
66 89
66 121
66 187
66 189
66 190
66 193
66 195
66 248
67 72
67 74
67 77
67 80
67 82
67 84
67 85
67 86
67 88
67 93
67 102
67 103
67 105
67 106
67 107
67 108
67 116
67 120
67 122
67 125
67 126
67 142
67 150
67 175
67 179
67 185
67 188
67 226
67 229
67 246
67 249
68 69
68 70
68 81
68 83
68 87
68 89
68 106
68 121
68 124
68 127
68 140
68 156
68 160
68 161
68 177
68 178
68 187
68 189
68 190
68 193
68 195
68 198
68 202
68 204
68 205
68 207
68 208
68 210
68 213
68 226
68 248
69 70
69 81
69 83
69 87
69 89
69 109
69 121
69 141
69 145
69 152
69 187
69 189
69 190
69 193
69 195
69 200
69 203
69 206
69 211
69 214
69 215
69 248
70 81
70 83
70 87
70 89
70 121
70 159
70 180
70 186
70 191
70 192
70 194
70 196
70 209
71 75
71 76
71 81
71 83
71 87
71 89
71 94
71 111
71 112
71 114
71 121
71 132
71 147
71 163
71 181
71 182
71 183
71 197
71 199
71 217
71 233
71 236
72 74
72 77
72 80
72 82
72 84
72 85
72 86
72 88
72 90
72 91
72 92
72 96
72 98
72 116
72 120
72 122
72 125
72 126
72 142
72 145
72 146
72 162
72 164
72 165
72 167
72 173
72 180
72 181
72 200
72 218
72 232
72 234
72 235
73 78
73 79
73 97
73 110
73 113
73 117
73 118
73 119
73 123
73 124
73 127
73 128
73 129
73 130
73 131
73 137
73 143
73 144
73 170
73 188
73 198
73 216
73 223
73 231
73 240
73 242
74 77
74 80
74 82
74 84
74 85
74 86
74 88
74 90
74 91
74 92
74 96
74 98
74 116
74 120
74 122
74 125
74 126
74 142
74 145
74 146
74 162
74 164
74 165
74 167
74 173
74 180
74 200
74 218
74 232
74 234
74 235
75 76
75 81
75 83
75 87
75 89
75 94
75 111
75 112
75 114
75 121
75 132
75 147
75 163
75 181
75 182
75 183
75 197
75 199
75 217
75 233
75 236
76 81
76 83
76 87
76 89
76 94
76 111
76 112
76 114
76 121
76 132
76 147
76 163
77 80
77 82
77 84
77 85
77 86
77 88
77 116
77 120
77 122
77 125
77 126
77 142
78 79
78 97
78 170
78 188
78 223
78 240
78 242
79 97
79 110
79 113
79 117
79 118
79 119
79 123
79 124
79 127
79 170
79 188
79 223
79 240
79 242
80 82
80 84
80 85
80 86
80 88
80 99
80 100
80 101
80 104
80 109
80 116
80 120
80 122
80 125
80 126
80 137
80 142
80 166
80 171
80 172
80 174
80 176
80 177
80 178
80 191
80 245
81 83
81 87
81 89
81 94
81 106
81 111
81 112
81 114
81 121
81 132
81 147
81 163
81 187
81 189
81 190
81 193
81 195
81 198
81 202
81 204
81 205
81 207
81 208
81 210
81 213
81 226
81 248
82 84
82 85
82 86
82 88
82 99
82 100
82 101
82 104
82 109
82 116
82 120
82 122
82 125
82 126
82 137
82 142
82 191
82 245
83 87
83 89
83 94
83 111
83 112
83 114
83 121
83 132
83 147
83 163
84 85
84 86
84 88
84 93
84 102
84 103
84 105
84 106
84 107
84 108
84 116
84 120
84 122
84 125
84 126
84 142
84 156
84 175
84 179
84 217
84 219
84 228
84 233
84 236
84 237
84 247
84 248
85 86
85 88
85 93
85 102
85 103
85 105
85 106
85 107
85 108
85 116
85 120
85 122
85 125
85 126
85 142
85 175
85 179
85 226
85 229
85 246
85 249
86 87
86 88
86 93
86 102
86 103
86 105
86 106
86 107
86 108
86 116
86 120
86 122
86 125
86 126
86 142
86 159
86 175
86 179
86 192
86 194
86 195
86 206
86 209
86 211
86 214
86 231
86 241
86 243
86 244
86 250
87 89
87 94
87 107
87 111
87 112
87 114
87 121
87 125
87 132
87 147
87 159
87 163
87 180
87 186
87 191
87 192
87 194
87 195
87 196
87 206
87 209
87 211
87 214
87 231
87 241
87 243
87 244
87 250
88 93
88 102
88 103
88 105
88 106
88 107
88 108
88 116
88 120
88 122
88 125
88 126
88 142
88 175
88 179
89 94
89 111
89 112
89 114
89 121
89 132
89 147
89 159
89 163
89 180
89 186
89 191
89 192
89 194
89 196
89 209
90 91
90 92
90 96
90 98
90 145
90 146
90 162
90 164
90 165
90 167
90 173
90 180
90 181
90 200
90 218
90 232
90 234
90 235
91 92
91 96
91 98
91 145
91 146
91 162
91 164
91 165
91 167
91 173
91 180
91 200
91 218
91 232
91 234
91 235
92 96
92 98
92 145
92 146
92 162
92 164
92 165
92 167
92 173
92 180
92 200
92 218
92 232
92 234
92 235
93 102
93 103
93 105
93 106
93 107
93 108
93 122
93 125
93 126
93 142
93 148
93 150
93 156
93 166
93 175
93 179
93 181
93 182
93 183
93 184
93 185
93 188
93 197
93 199
93 201
93 217
93 219
93 228
93 233
93 236
93 237
93 247
93 248
94 95
94 97
94 111
94 112
94 114
94 121
94 132
94 147
94 149
94 163
94 168
94 170
94 220
94 221
94 223
94 238
94 240
94 242
95 97
95 147
95 149
95 163
95 168
95 170
95 220
95 221
95 223
95 238
95 240
95 242
96 98
96 132
96 133
96 135
96 142
96 145
96 146
96 153
96 162
96 164
96 165
96 167
96 171
96 173
96 180
96 181
96 200
96 202
96 205
96 218
96 232
96 234
96 235
97 147
97 149
97 163
97 168
97 170
97 188
97 220
97 221
97 223
97 238
97 240
97 242
98 145
98 146
98 162
98 164
98 165
98 167
98 173
98 180
98 181
98 200
98 218
98 232
98 234
98 235
99 100
99 101
99 104
99 109
99 120
99 137
99 143
99 144
99 153
99 154
99 166
99 171
99 172
99 174
99 176
99 177
99 178
99 189
99 191
99 198
99 202
99 205
99 206
99 207
99 216
99 224
99 231
99 241
99 245
100 101
100 104
100 109
100 120
100 137
100 166
100 171
100 172
100 174
100 176
100 177
100 178
100 191
100 245
101 104
101 109
101 120
101 137
101 191
101 245
102 103
102 105
102 106
102 107
102 108
102 122
102 125
102 126
102 142
102 156
102 175
102 179
102 217
102 219
102 228
102 233
102 236
102 237
102 247
102 248
103 105
103 106
103 107
103 108
103 122
103 125
103 126
103 138
103 142
103 148
103 150
103 157
103 159
103 166
103 175
103 179
103 197
103 199
103 201
103 209
103 212
103 226
103 229
103 246
103 249
104 109
104 120
104 123
104 137
104 138
104 139
104 141
104 145
104 148
104 150
104 152
104 157
104 158
104 159
104 166
104 171
104 172
104 174
104 176
104 177
104 178
104 191
104 245
105 106
105 107
105 108
105 122
105 125
105 126
105 142
105 175
105 179
105 226
105 229
105 246
105 249
106 107
106 108
106 122
106 124
106 125
106 126
106 127
106 140
106 142
106 156
106 160
106 161
106 175
106 177
106 178
106 179
106 187
106 189
106 190
106 198
106 202
106 204
106 205
106 207
106 208
106 210
106 213
106 226
106 229
106 246
106 249
107 108
107 122
107 125
107 126
107 142
107 159
107 175
107 179
107 192
107 194
107 195
107 206
107 209
107 211
107 214
107 231
107 241
107 243
107 244
107 250
108 122
108 125
108 126
108 142
108 175
108 179
109 120
109 123
109 137
109 138
109 139
109 141
109 145
109 148
109 150
109 152
109 157
109 158
109 159
109 166
109 171
109 172
109 174
109 176
109 177
109 178
109 191
109 195
109 200
109 203
109 206
109 211
109 214
109 215
109 245
110 113
110 117
110 118
110 119
110 123
110 124
110 127
110 128
110 129
110 130
110 131
110 137
110 143
110 144
110 198
110 216
110 231
110 242
111 112
111 114
111 115
111 116
111 120
111 121
111 122
111 125
111 126
111 132
111 133
111 142
111 147
111 163
111 181
111 182
111 183
111 197
111 199
111 202
111 217
111 233
111 236
112 114
112 115
112 116
112 120
112 121
112 122
112 125
112 126
112 132
112 133
112 142
112 147
112 163
112 181
112 182
112 183
112 197
112 199
112 202
112 217
112 233
112 236
113 117
113 118
113 119
113 123
113 124
113 127
113 128
113 129
113 130
113 131
113 137
113 143
113 144
113 198
113 216
113 231
113 242
114 115
114 116
114 120
114 121
114 122
114 125
114 126
114 132
114 133
114 142
114 147
114 163
114 202
115 116
115 120
115 121
115 122
115 125
115 126
115 132
115 133
115 142
115 202
116 120
116 121
116 122
116 125
116 126
116 132
116 133
116 142
116 202
117 118
117 119
117 123
117 124
117 127
117 242
118 119
118 123
118 124
118 127
118 134
118 136
118 138
118 139
118 140
118 141
118 242
119 123
119 124
119 127
119 134
119 136
119 138
119 139
119 140
119 141
119 146
119 147
119 149
119 151
119 155
119 187
119 192
119 204
119 210
119 211
119 220
119 226
119 227
119 242
119 244
120 121
120 122
120 125
120 126
120 132
120 133
120 137
120 142
120 191
120 202
120 245
121 122
121 125
121 126
121 132
121 133
121 142
121 147
121 163
121 202
122 125
122 126
122 132
122 133
122 142
122 175
122 179
122 202
122 226
122 229
122 246
122 249
123 124
123 127
123 134
123 136
123 138
123 139
123 140
123 141
123 145
123 148
123 150
123 152
123 157
123 158
123 159
123 166
123 176
123 242
124 127
124 134
124 136
124 138
124 139
124 140
124 141
124 156
124 160
124 161
124 177
124 178
124 213
124 242
125 126
125 132
125 133
125 142
125 159
125 175
125 179
125 192
125 194
125 195
125 202
125 206
125 209
125 211
125 214
125 231
125 241
125 243
125 244
125 250
126 132
126 133
126 142
126 175
126 179
126 202
127 134
127 136
127 138
127 139
127 140
127 141
127 156
127 160
127 161
127 177
127 178
127 213
127 217
127 218
127 219
127 221
127 222
127 223
127 226
127 228
127 229
127 230
127 242
128 129
128 130
128 131
128 137
128 143
128 144
128 198
128 216
128 231
129 130
129 131
129 137
129 143
129 144
129 198
129 216
129 231
130 131
130 137
130 143
130 144
130 198
130 216
130 231
131 137
131 143
131 144
131 167
131 198
131 216
131 231
132 133
132 135
132 142
132 147
132 153
132 163
132 171
132 202
132 205
133 135
133 142
133 153
133 171
133 202
133 205
134 136
134 138
134 139
134 140
134 141
134 146
134 147
134 149
134 151
134 155
134 162
134 163
134 164
134 165
134 167
134 168
134 169
134 170
134 173
134 175
134 179
134 187
134 192
134 204
134 210
134 211
134 220
134 226
134 227
134 244
135 142
135 153
135 171
135 202
135 205
136 138
136 139
136 140
136 141
137 143
137 144
137 191
137 198
137 216
137 231
137 245
138 139
138 140
138 141
138 145
138 148
138 150
138 152
138 157
138 158
138 159
138 166
138 176
138 197
138 199
138 201
138 209
138 212
138 246
139 140
139 141
139 145
139 148
139 150
139 152
139 157
139 158
139 159
139 166
139 176
140 141
140 156
140 160
140 161
140 177
140 178
140 213
141 145
141 148
141 150
141 152
141 157
141 158
141 159
141 166
141 176
141 195
141 200
141 203
141 206
141 211
141 214
141 215
142 153
142 171
142 175
142 179
142 202
142 205
143 144
143 153
143 154
143 171
143 172
143 189
143 198
143 202
143 205
143 206
143 207
143 216
143 224
143 231
143 241
144 153
144 154
144 171
144 172
144 189
144 198
144 202
144 205
144 206
144 207
144 216
144 224
144 231
144 241
145 146
145 148
145 150
145 152
145 157
145 158
145 159
145 162
145 164
145 165
145 166
145 167
145 173
145 176
145 180
145 186
145 191
145 195
145 200
145 203
145 206
145 211
145 214
145 215
145 218
145 221
145 222
145 223
145 232
145 234
145 235
145 238
145 239
145 240
145 242
145 245
146 147
146 149
146 151
146 155
146 162
146 163
146 164
146 165
146 167
146 168
146 169
146 170
146 173
146 175
146 179
146 180
146 187
146 192
146 200
146 204
146 210
146 211
146 218
146 220
146 226
146 227
146 232
146 234
146 235
146 244
147 149
147 151
147 155
147 162
147 163
147 164
147 165
147 167
147 168
147 169
147 170
147 173
147 175
147 179
147 187
147 192
147 204
147 210
147 211
147 220
147 221
147 223
147 226
147 227
147 238
147 240
147 242
147 244
148 150
148 152
148 157
148 158
148 159
148 166
148 176
148 181
148 182
148 183
148 184
148 185
148 188
148 197
148 199
148 201
148 209
148 212
148 217
148 219
148 233
148 236
148 237
148 246
149 151
149 155
149 162
149 163
149 164
149 165
149 167
149 168
149 169
149 170
149 173
149 175
149 179
149 187
149 192
149 204
149 210
149 211
149 220
149 221
149 223
149 226
149 227
149 238
149 240
149 242
149 244
150 152
150 157
150 158
150 159
150 166
150 176
150 181
150 182
150 183
150 184
150 185
150 188
150 197
150 199
150 201
150 209
150 212
150 217
150 219
150 233
150 236
150 237
150 246
151 155
151 162
151 163
151 164
151 165
151 167
151 168
151 169
151 170
151 173
151 175
151 179
151 187
151 192
151 204
151 210
151 211
151 220
151 226
151 227
151 244
152 157
152 158
152 159
152 166
152 176
152 180
152 186
152 191
152 195
152 200
152 203
152 206
152 211
152 214
152 215
152 218
152 221
152 222
152 223
152 232
152 234
152 235
152 238
152 239
152 240
152 242
152 245
153 154
153 171
153 172
153 189
153 198
153 202
153 205
153 206
153 207
153 216
153 224
153 231
153 241
154 171
154 172
154 189
154 198
154 202
154 205
154 206
154 207
154 216
154 224
154 231
154 241
155 187
155 192
155 204
155 210
155 211
155 220
155 226
155 227
155 244
156 160
156 161
156 175
156 177
156 178
156 213
156 217
156 218
156 219
156 221
156 222
156 223
156 226
156 228
156 229
156 230
156 233
156 236
156 237
156 247
156 248
157 158
157 159
157 166
157 176
157 197
157 199
157 201
157 209
157 212
157 246
158 159
158 166
158 176
159 166
159 176
159 180
159 186
159 191
159 192
159 194
159 195
159 196
159 197
159 199
159 201
159 206
159 209
159 211
159 212
159 214
159 231
159 241
159 243
159 244
159 246
159 250
160 161
160 177
160 178
160 213
161 177
161 178
161 213
161 217
161 218
161 219
161 221
161 222
161 223
161 226
161 228
161 229
161 230
162 163
162 164
162 165
162 167
162 168
162 169
162 170
162 173
162 175
162 179
162 180
162 181
162 187
162 200
162 204
162 218
162 220
162 232
162 234
162 235
163 164
163 165
163 167
163 168
163 169
163 170
163 173
163 175
163 179
163 181
163 182
163 183
163 187
163 197
163 199
163 204
163 217
163 220
163 221
163 223
163 233
163 236
163 238
163 240
163 242
164 165
164 167
164 168
164 169
164 170
164 173
164 175
164 179
164 180
164 187
164 200
164 204
164 218
164 220
164 232
164 234
164 235
165 167
165 168
165 169
165 170
165 173
165 175
165 179
165 180
165 187
165 200
165 204
165 218
165 220
165 232
165 234
165 235
166 171
166 172
166 174
166 176
166 177
166 178
166 181
166 182
166 183
166 184
166 185
166 188
166 197
166 199
166 201
166 209
166 212
166 217
166 219
166 233
166 236
166 237
166 246
167 168
167 169
167 170
167 173
167 175
167 179
167 180
167 187
167 200
167 204
167 218
167 220
167 232
167 234
167 235
168 169
168 170
168 173
168 175
168 179
168 187
168 204
168 220
168 221
168 223
168 238
168 240
168 242
169 170
169 173
169 175
169 179
169 187
169 204
169 220
170 173
170 175
170 179
170 187
170 188
170 204
170 220
170 221
170 223
170 238
170 240
170 242
171 172
171 174
171 176
171 177
171 178
171 189
171 198
171 202
171 205
171 206
171 207
171 216
171 224
171 231
171 241
172 174
172 176
172 177
172 178
172 189
172 198
172 202
172 205
172 206
172 207
172 216
172 224
172 231
172 241
173 175
173 179
173 180
173 181
173 187
173 200
173 204
173 218
173 220
173 232
173 234
173 235
174 176
174 177
174 178
175 179
175 187
175 204
175 217
175 219
175 220
175 228
175 233
175 236
175 237
175 247
175 248
176 177
176 178
177 178
177 213
178 213
178 217
178 218
178 219
178 221
178 222
178 223
178 226
178 228
178 229
178 230
179 187
179 204
179 220
180 181
180 186
180 191
180 192
180 194
180 196
180 200
180 203
180 209
180 218
180 221
180 222
180 223
180 232
180 234
180 235
180 238
180 239
180 240
180 242
180 245
181 182
181 183
181 184
181 185
181 188
181 197
181 199
181 201
181 217
181 219
181 232
181 233
181 236
181 237
182 183
182 184
182 185
182 188
182 197
182 199
182 201
182 217
182 219
182 233
182 236
182 237
183 184
183 185
183 188
183 197
183 199
183 201
183 217
183 219
183 233
183 236
183 237
184 185
184 188
184 197
184 199
184 201
184 217
184 219
184 233
184 236
184 237
185 188
185 197
185 199
185 201
185 217
185 219
185 233
185 236
185 237
186 191
186 192
186 194
186 196
186 200
186 203
186 209
186 218
186 221
186 222
186 223
186 232
186 234
186 235
186 238
186 239
186 240
186 242
186 245
187 189
187 190
187 192
187 193
187 195
187 198
187 202
187 204
187 205
187 207
187 208
187 210
187 211
187 213
187 220
187 226
187 227
187 244
187 248
188 197
188 199
188 201
188 217
188 219
188 223
188 233
188 236
188 237
188 240
188 242
189 190
189 193
189 195
189 198
189 202
189 204
189 205
189 206
189 207
189 208
189 210
189 213
189 216
189 224
189 226
189 231
189 241
189 248
190 193
190 195
190 198
190 202
190 204
190 205
190 207
190 208
190 210
190 213
190 226
190 248
191 192
191 194
191 196
191 200
191 203
191 209
191 218
191 221
191 222
191 223
191 232
191 234
191 235
191 238
191 239
191 240
191 242
191 245
192 194
192 195
192 196
192 204
192 206
192 209
192 210
192 211
192 214
192 216
192 220
192 224
192 225
192 226
192 227
192 231
192 241
192 243
192 244
192 250
193 195
193 248
194 195
194 196
194 206
194 209
194 211
194 214
194 231
194 241
194 243
194 244
194 250
195 200
195 203
195 206
195 209
195 211
195 214
195 215
195 231
195 241
195 243
195 244
195 248
195 250
196 209
197 199
197 201
197 209
197 212
197 217
197 219
197 233
197 236
197 237
197 246
198 202
198 204
198 205
198 206
198 207
198 208
198 210
198 213
198 216
198 224
198 226
198 231
198 241
199 201
199 209
199 212
199 217
199 219
199 233
199 236
199 237
199 246
200 203
200 206
200 211
200 214
200 215
200 218
200 221
200 222
200 223
200 232
200 234
200 235
200 238
200 239
200 240
200 242
200 245
201 209
201 212
201 217
201 219
201 233
201 236
201 237
201 246
202 204
202 205
202 206
202 207
202 208
202 210
202 213
202 216
202 224
202 226
202 231
202 241
203 206
203 211
203 214
203 215
203 218
203 221
203 222
203 223
203 232
203 234
203 235
203 238
203 239
203 240
203 242
203 245
204 205
204 207
204 208
204 210
204 211
204 213
204 220
204 226
204 227
204 244
205 206
205 207
205 208
205 210
205 213
205 216
205 224
205 226
205 231
205 241
206 207
206 209
206 211
206 214
206 215
206 216
206 220
206 224
206 225
206 227
206 231
206 241
206 243
206 244
206 250
207 208
207 210
207 213
207 216
207 224
207 226
207 231
207 241
208 210
208 213
208 226
209 211
209 212
209 214
209 216
209 220
209 224
209 225
209 227
209 231
209 241
209 243
209 244
209 246
209 250
210 211
210 213
210 220
210 226
210 227
210 244
211 214
211 215
211 216
211 220
211 224
211 225
211 226
211 227
211 231
211 241
211 243
211 244
211 250
212 246
213 226
214 215
214 231
214 241
214 243
214 244
214 250
216 220
216 224
216 225
216 227
216 231
216 241
216 243
216 244
217 218
217 219
217 221
217 222
217 223
217 226
217 228
217 229
217 230
217 233
217 236
217 237
217 247
217 248
218 219
218 221
218 222
218 223
218 226
218 228
218 229
218 230
218 232
218 234
218 235
218 238
218 239
218 240
218 242
218 245
219 221
219 222
219 223
219 226
219 228
219 229
219 230
219 233
219 236
219 237
219 247
219 248
220 221
220 223
220 224
220 225
220 226
220 227
220 231
220 238
220 240
220 241
220 242
220 243
220 244
221 222
221 223
221 226
221 228
221 229
221 230
221 232
221 234
221 235
221 238
221 239
221 240
221 242
221 245
222 223
222 226
222 228
222 229
222 230
222 232
222 234
222 235
222 238
222 239
222 240
222 242
222 245
223 226
223 228
223 229
223 230
223 232
223 234
223 235
223 238
223 239
223 240
223 242
223 245
224 225
224 227
224 231
224 241
224 243
224 244
225 227
225 231
225 241
225 243
225 244
226 227
226 228
226 229
226 230
226 244
226 246
226 249
227 231
227 241
227 243
227 244
228 229
228 230
228 233
228 236
228 237
228 247
228 248
229 230
229 246
229 249
231 241
231 243
231 244
231 250
232 234
232 235
232 238
232 239
232 240
232 242
232 245
233 236
233 237
233 247
233 248
234 235
234 238
234 239
234 240
234 242
234 245
235 238
235 239
235 240
235 242
235 245
236 237
236 247
236 248
237 247
237 248
238 239
238 240
238 242
238 245
239 240
239 242
239 245
240 242
240 245
241 243
241 244
241 250
242 245
243 244
243 250
244 250
246 249
247 248
0 1
2
3
4 5
6
7 8
9
10 11
12 13
14 15
16
17 18
19
20
21
22
23
24 25
26
27
28 29
30
31
32 33
34
35 36
37
38
39
40
41
42 43
44
45
46
47
48 49
50 51
52
53 54
55
56
57
58
59
60
61 62
63 64
65
66 67
68
69 70
71 72
73
74 75
76
77
78
79
80 81
82
83 84
85
86 87
88 89
90
91
92
93 94
95
96 97
98 99
100
101
102 103
104 105
106 107
108 109
110
111
112 113
114
115
116
117
118
119 120
121
122 123
124 125
126 127
128
129
130
131 132
133
134
135
136
137
138
139
140
141 142
143
144
145 146
147 148
149 150
151 152
153
154
155
156 157
158
159 160
161
162
163 164
165
166 167
168
169
170 171
172 173
174
175
176
177
178 179
180 181
182
183
184
185
186 187
188
189
190
191 192
193
194 195
196
197 198
199
200
201
202
203 204
205
206 207
208 209
210 211
212
213 214
215
216
217
218
219
220 221
222
223
224
225
226 227
228
229
230
231 232
233 234
235 236
237
238
239
240
241 242
243
244 245
246 247
248 249
250
